(set-logic QF_S)
(declare-fun var0 () String)
(declare-fun var1 () String)
(declare-fun var2 () String)
(declare-fun var3 () String)
(declare-fun var4 () String)
(declare-fun var5 () String)
(declare-fun var6 () String)
(declare-fun var7 () String)
(declare-fun var8 () String)
(declare-fun var9 () String)
(declare-fun var10 () String)
(declare-fun var11 () String)
(declare-fun var12 () String)
(declare-fun var13 () String)
(declare-fun var14 () String)
(declare-fun var15 () String)
(declare-fun var16 () String)
(declare-fun var17 () String)
(declare-fun var18 () String)
(declare-fun var19 () String)
(declare-fun var20 () String)
(declare-fun var21 () String)
(declare-fun var22 () String)
(declare-fun var23 () String)
(declare-fun var24 () String)
(declare-fun var25 () String)
(declare-fun var26 () String)
(declare-fun var27 () String)
(declare-fun var28 () String)
(declare-fun var29 () String)
(declare-fun var30 () String)
(declare-fun var31 () String)
(declare-fun var32 () String)
(declare-fun var33 () String)
(declare-fun var34 () String)
(declare-fun var35 () String)
(declare-fun var36 () String)
(declare-fun var37 () String)
(declare-fun var38 () String)
(declare-fun var39 () String)
(declare-fun var40 () String)
(declare-fun var41 () String)
(declare-fun var42 () String)
(declare-fun var43 () String)
(declare-fun var44 () String)
(declare-fun var45 () String)
(declare-fun var46 () String)
(declare-fun var47 () String)
(declare-fun var48 () String)
(declare-fun var49 () String)
(declare-fun var50 () String)
(declare-fun var51 () String)
(declare-fun var52 () String)
(declare-fun var53 () String)
(declare-fun var54 () String)
(declare-fun var55 () String)
(declare-fun var56 () String)
(declare-fun var57 () String)
(declare-fun var58 () String)
(declare-fun var59 () String)
(declare-fun var60 () String)
(declare-fun var61 () String)
(declare-fun var62 () String)
(declare-fun var63 () String)
(declare-fun var64 () String)
(declare-fun var65 () String)
(declare-fun var66 () String)
(declare-fun var67 () String)
(declare-fun var68 () String)
(declare-fun var69 () String)
(declare-fun var70 () String)
(declare-fun var71 () String)
(declare-fun var72 () String)
(declare-fun var73 () String)
(declare-fun var74 () String)
(declare-fun var75 () String)
(declare-fun var76 () String)
(declare-fun var77 () String)
(declare-fun var78 () String)
(declare-fun var79 () String)
(declare-fun var80 () String)
(declare-fun var81 () String)
(declare-fun var82 () String)
(declare-fun var83 () String)
(declare-fun var84 () String)
(declare-fun var85 () String)
(declare-fun var86 () String)
(declare-fun var87 () String)
(declare-fun var88 () String)
(declare-fun var89 () String)
(declare-fun var90 () String)
(declare-fun var91 () String)
(declare-fun var92 () String)
(declare-fun var93 () String)
(declare-fun var94 () String)
(declare-fun var95 () String)
(declare-fun var96 () String)
(declare-fun var97 () String)
(declare-fun var98 () String)
(declare-fun var99 () String)
(declare-fun var100 () String)
(declare-fun var101 () String)
(declare-fun var102 () String)
(declare-fun var103 () String)
(declare-fun var104 () String)
(declare-fun var105 () String)
(declare-fun var106 () String)
(declare-fun var107 () String)
(declare-fun var108 () String)
(declare-fun var109 () String)
(declare-fun var110 () String)
(declare-fun var111 () String)
(declare-fun var112 () String)
(declare-fun var113 () String)
(declare-fun var114 () String)
(declare-fun var115 () String)
(declare-fun var116 () String)
(declare-fun var117 () String)
(declare-fun var118 () String)
(declare-fun var119 () String)
(declare-fun var120 () String)
(declare-fun var121 () String)
(declare-fun var122 () String)
(declare-fun var123 () String)
(declare-fun var124 () String)
(declare-fun var125 () String)
(declare-fun var126 () String)
(declare-fun var127 () String)
(declare-fun var128 () String)
(declare-fun var129 () String)
(declare-fun var130 () String)
(declare-fun var131 () String)
(declare-fun var132 () String)
(declare-fun var133 () String)
(declare-fun var134 () String)
(declare-fun var135 () String)
(declare-fun var136 () String)
(declare-fun var137 () String)
(declare-fun var138 () String)
(declare-fun var139 () String)
(declare-fun var140 () String)
(declare-fun var141 () String)
(declare-fun var142 () String)
(declare-fun var143 () String)
(declare-fun var144 () String)
(declare-fun var145 () String)
(declare-fun var146 () String)
(declare-fun var147 () String)
(declare-fun var148 () String)
(declare-fun var149 () String)
(declare-fun var150 () String)
(declare-fun var151 () String)
(declare-fun var152 () String)
(declare-fun var153 () String)
(declare-fun var154 () String)
(declare-fun var155 () String)
(declare-fun var156 () String)
(declare-fun var157 () String)
(declare-fun var158 () String)
(declare-fun var159 () String)
(declare-fun var160 () String)
(declare-fun var161 () String)
(declare-fun var162 () String)
(declare-fun var163 () String)
(declare-fun var164 () String)
(declare-fun var165 () String)
(declare-fun var166 () String)
(declare-fun var167 () String)
(declare-fun var168 () String)
(declare-fun var169 () String)
(declare-fun var170 () String)
(declare-fun var171 () String)
(declare-fun var172 () String)
(declare-fun var173 () String)
(declare-fun var174 () String)
(declare-fun var175 () String)
(declare-fun var176 () String)
(declare-fun var177 () String)
(declare-fun var178 () String)
(declare-fun var179 () String)
(declare-fun var180 () String)
(declare-fun var181 () String)
(declare-fun var182 () String)
(declare-fun var183 () String)
(declare-fun var184 () String)
(declare-fun var185 () String)
(declare-fun var186 () String)
(declare-fun var187 () String)
(declare-fun var188 () String)
(declare-fun var189 () String)
(declare-fun var190 () String)
(declare-fun var191 () String)
(declare-fun var192 () String)
(declare-fun var193 () String)
(declare-fun var194 () String)
(declare-fun var195 () String)
(declare-fun var196 () String)
(declare-fun var197 () String)
(declare-fun var198 () String)
(declare-fun var199 () String)
(declare-fun var200 () String)
(declare-fun var201 () String)
(declare-fun var202 () String)
(declare-fun var203 () String)
(declare-fun var204 () String)
(declare-fun var205 () String)
(declare-fun var206 () String)
(declare-fun var207 () String)
(declare-fun var208 () String)
(declare-fun var209 () String)
(declare-fun var210 () String)
(declare-fun var211 () String)
(declare-fun var212 () String)
(declare-fun var213 () String)
(declare-fun var214 () String)
(declare-fun var215 () String)
(declare-fun var216 () String)
(declare-fun var217 () String)
(declare-fun var218 () String)
(declare-fun var219 () String)
(declare-fun var220 () String)
(declare-fun var221 () String)
(declare-fun var222 () String)
(declare-fun var223 () String)
(declare-fun var224 () String)
(declare-fun var225 () String)
(declare-fun var226 () String)
(declare-fun var227 () String)
(declare-fun var228 () String)
(declare-fun var229 () String)
(declare-fun var230 () String)
(declare-fun var231 () String)
(declare-fun var232 () String)
(declare-fun var233 () String)
(declare-fun var234 () String)
(declare-fun var235 () String)
(declare-fun var236 () String)
(declare-fun var237 () String)
(declare-fun var238 () String)
(declare-fun var239 () String)
(declare-fun var240 () String)
(declare-fun var241 () String)
(declare-fun var242 () String)
(declare-fun var243 () String)
(declare-fun var244 () String)
(declare-fun var245 () String)
(declare-fun var246 () String)
(declare-fun var247 () String)
(declare-fun var248 () String)
(declare-fun var249 () String)
(declare-fun var250 () String)
(declare-fun var251 () String)
(declare-fun var252 () String)
(declare-fun var253 () String)
(declare-fun var254 () String)
(declare-fun var255 () String)
(declare-fun var256 () String)
(declare-fun var257 () String)
(declare-fun var258 () String)
(declare-fun var259 () String)
(declare-fun var260 () String)
(declare-fun var261 () String)
(declare-fun var262 () String)
(declare-fun var263 () String)
(declare-fun var264 () String)
(declare-fun var265 () String)
(declare-fun var266 () String)
(declare-fun var267 () String)
(declare-fun var268 () String)
(declare-fun var269 () String)
(declare-fun var270 () String)
(declare-fun var271 () String)
(declare-fun var272 () String)
(declare-fun var273 () String)
(declare-fun var274 () String)
(declare-fun var275 () String)
(declare-fun var276 () String)
(declare-fun var277 () String)
(declare-fun var278 () String)
(declare-fun var279 () String)
(declare-fun var280 () String)
(declare-fun var281 () String)
(declare-fun var282 () String)
(declare-fun var283 () String)
(declare-fun var284 () String)
(declare-fun var285 () String)
(declare-fun var286 () String)
(declare-fun var287 () String)
(declare-fun var288 () String)
(declare-fun var289 () String)
(declare-fun var290 () String)
(declare-fun var291 () String)
(declare-fun var292 () String)
(declare-fun var293 () String)
(declare-fun var294 () String)
(declare-fun var295 () String)
(declare-fun var296 () String)
(declare-fun var297 () String)
(declare-fun var298 () String)
(declare-fun var299 () String)
(declare-fun var300 () String)
(declare-fun var301 () String)
(declare-fun var302 () String)
(declare-fun var303 () String)
(declare-fun var304 () String)
(declare-fun var305 () String)
(declare-fun var306 () String)
(declare-fun var307 () String)
(declare-fun var308 () String)
(declare-fun var309 () String)
(declare-fun var310 () String)
(declare-fun var311 () String)
(declare-fun var312 () String)
(declare-fun var313 () String)
(declare-fun var314 () String)
(declare-fun var315 () String)
(declare-fun var316 () String)
(declare-fun var317 () String)
(declare-fun var318 () String)
(declare-fun var319 () String)
(declare-fun var320 () String)
(declare-fun var321 () String)
(declare-fun var322 () String)
(declare-fun var323 () String)
(declare-fun var324 () String)
(declare-fun var325 () String)
(declare-fun var326 () String)
(declare-fun var327 () String)
(declare-fun var328 () String)
(declare-fun var329 () String)
(declare-fun var330 () String)
(declare-fun var331 () String)
(declare-fun var332 () String)
(declare-fun var333 () String)
(declare-fun var334 () String)
(declare-fun var335 () String)
(declare-fun var336 () String)
(declare-fun var337 () String)
(declare-fun var338 () String)
(declare-fun var339 () String)
(declare-fun var340 () String)
(declare-fun var341 () String)
(declare-fun var342 () String)
(declare-fun var343 () String)
(declare-fun var344 () String)
(declare-fun var345 () String)
(declare-fun var346 () String)
(declare-fun var347 () String)
(declare-fun var348 () String)
(declare-fun var349 () String)
(declare-fun var350 () String)
(declare-fun var351 () String)
(declare-fun var352 () String)
(declare-fun var353 () String)
(declare-fun var354 () String)
(declare-fun var355 () String)
(declare-fun var356 () String)
(declare-fun var357 () String)
(declare-fun var358 () String)
(declare-fun var359 () String)
(declare-fun var360 () String)
(declare-fun var361 () String)
(declare-fun var362 () String)
(declare-fun var363 () String)
(declare-fun var364 () String)
(declare-fun var365 () String)
(declare-fun var366 () String)
(declare-fun var367 () String)
(declare-fun var368 () String)
(declare-fun var369 () String)
(declare-fun var370 () String)
(declare-fun var371 () String)
(declare-fun var372 () String)
(declare-fun var373 () String)
(declare-fun var374 () String)
(declare-fun var375 () String)
(declare-fun var376 () String)
(declare-fun var377 () String)
(declare-fun var378 () String)
(declare-fun var379 () String)
(declare-fun var380 () String)
(declare-fun var381 () String)
(declare-fun var382 () String)
(declare-fun var383 () String)
(declare-fun var384 () String)
(declare-fun var385 () String)
(declare-fun var386 () String)
(declare-fun var387 () String)
(declare-fun var388 () String)
(declare-fun var389 () String)
(declare-fun var390 () String)
(declare-fun var391 () String)
(declare-fun var392 () String)
(declare-fun var393 () String)
(declare-fun var394 () String)
(declare-fun var395 () String)
(declare-fun var396 () String)
(declare-fun var397 () String)
(declare-fun var398 () String)
(declare-fun var399 () String)
(declare-fun var400 () String)
(declare-fun var401 () String)
(declare-fun var402 () String)
(declare-fun var403 () String)
(declare-fun var404 () String)
(declare-fun var405 () String)
(declare-fun var406 () String)
(declare-fun var407 () String)
(declare-fun var408 () String)
(declare-fun var409 () String)
(declare-fun var410 () String)
(declare-fun var411 () String)
(declare-fun var412 () String)
(declare-fun var413 () String)
(declare-fun var414 () String)
(declare-fun var415 () String)
(declare-fun var416 () String)
(declare-fun var417 () String)
(declare-fun var418 () String)
(declare-fun var419 () String)
(declare-fun var420 () String)
(declare-fun var421 () String)
(declare-fun var422 () String)
(declare-fun var423 () String)
(declare-fun var424 () String)
(declare-fun var425 () String)
(declare-fun var426 () String)
(declare-fun var427 () String)
(declare-fun var428 () String)
(declare-fun var429 () String)
(declare-fun var430 () String)
(declare-fun var431 () String)
(declare-fun var432 () String)
(declare-fun var433 () String)
(declare-fun var434 () String)
(declare-fun var435 () String)
(declare-fun var436 () String)
(declare-fun var437 () String)
(declare-fun var438 () String)
(declare-fun var439 () String)
(declare-fun var440 () String)
(declare-fun var441 () String)
(declare-fun var442 () String)
(declare-fun var443 () String)
(declare-fun var444 () String)
(declare-fun var445 () String)
(declare-fun var446 () String)
(declare-fun var447 () String)
(declare-fun var448 () String)
(declare-fun var449 () String)
(declare-fun var450 () String)
(declare-fun var451 () String)
(declare-fun var452 () String)
(declare-fun var453 () String)
(declare-fun var454 () String)
(declare-fun var455 () String)
(declare-fun var456 () String)
(declare-fun var457 () String)
(declare-fun var458 () String)
(declare-fun var459 () String)
(declare-fun var460 () String)
(declare-fun var461 () String)
(declare-fun var462 () String)
(declare-fun var463 () String)
(declare-fun var464 () String)
(declare-fun var465 () String)
(declare-fun var466 () String)
(declare-fun var467 () String)
(declare-fun var468 () String)
(declare-fun var469 () String)
(declare-fun var470 () String)
(declare-fun var471 () String)
(declare-fun var472 () String)
(declare-fun var473 () String)
(declare-fun var474 () String)
(declare-fun var475 () String)
(declare-fun var476 () String)
(declare-fun var477 () String)
(declare-fun var478 () String)
(declare-fun var479 () String)
(declare-fun var480 () String)
(declare-fun var481 () String)
(declare-fun var482 () String)
(declare-fun var483 () String)
(declare-fun var484 () String)
(declare-fun var485 () String)
(declare-fun var486 () String)
(declare-fun var487 () String)
(declare-fun var488 () String)
(declare-fun var489 () String)
(assert (= 28 (str.len var0)))
(assert (= 66 (str.len var1)))
(assert (= 62 (str.len var2)))
(assert (= 1 (str.len var3)))
(assert (= 53 (str.len var4)))
(assert (= 47 (str.len var5)))
(assert (= 4 (str.len var6)))
(assert (= 43 (str.len var7)))
(assert (= 51 (str.len var8)))
(assert (= 2 (str.len var9)))
(assert (= 47 (str.len var10)))
(assert (= 73 (str.len var11)))
(assert (= 77 (str.len var12)))
(assert (= 78 (str.len var13)))
(assert (= 19 (str.len var14)))
(assert (= 23 (str.len var15)))
(assert (= 42 (str.len var16)))
(assert (= 61 (str.len var17)))
(assert (= 41 (str.len var18)))
(assert (= 5 (str.len var19)))
(assert (= 71 (str.len var20)))
(assert (= 35 (str.len var21)))
(assert (= 74 (str.len var22)))
(assert (= 69 (str.len var23)))
(assert (= 97 (str.len var24)))
(assert (= 24 (str.len var25)))
(assert (= 45 (str.len var26)))
(assert (= 77 (str.len var27)))
(assert (= 46 (str.len var28)))
(assert (= 13 (str.len var29)))
(assert (= 53 (str.len var30)))
(assert (= 23 (str.len var31)))
(assert (= 30 (str.len var32)))
(assert (= 32 (str.len var33)))
(assert (= 25 (str.len var34)))
(assert (= 16 (str.len var35)))
(assert (= 51 (str.len var36)))
(assert (= 39 (str.len var37)))
(assert (= 15 (str.len var38)))
(assert (= 60 (str.len var39)))
(assert (= 77 (str.len var40)))
(assert (= 98 (str.len var41)))
(assert (= 20 (str.len var42)))
(assert (= 82 (str.len var43)))
(assert (= 65 (str.len var44)))
(assert (= 75 (str.len var45)))
(assert (= 10 (str.len var46)))
(assert (= 37 (str.len var47)))
(assert (= 47 (str.len var48)))
(assert (= 7 (str.len var49)))
(assert (= 5 (str.len var50)))
(assert (= 96 (str.len var51)))
(assert (= 78 (str.len var52)))
(assert (= 93 (str.len var53)))
(assert (= 91 (str.len var54)))
(assert (= 23 (str.len var55)))
(assert (= 81 (str.len var56)))
(assert (= 64 (str.len var57)))
(assert (= 25 (str.len var58)))
(assert (= 86 (str.len var59)))
(assert (= 63 (str.len var60)))
(assert (= 49 (str.len var61)))
(assert (= 9 (str.len var62)))
(assert (= 54 (str.len var63)))
(assert (= 99 (str.len var64)))
(assert (= 51 (str.len var65)))
(assert (= 35 (str.len var66)))
(assert (= 70 (str.len var67)))
(assert (= 5 (str.len var68)))
(assert (= 12 (str.len var69)))
(assert (= 59 (str.len var70)))
(assert (= 39 (str.len var71)))
(assert (= 61 (str.len var72)))
(assert (= 44 (str.len var73)))
(assert (= 6 (str.len var74)))
(assert (= 80 (str.len var75)))
(assert (= 0 (str.len var76)))
(assert (= 6 (str.len var77)))
(assert (= 5 (str.len var78)))
(assert (= 97 (str.len var79)))
(assert (= 48 (str.len var80)))
(assert (= 92 (str.len var81)))
(assert (= 32 (str.len var82)))
(assert (= 57 (str.len var83)))
(assert (= 69 (str.len var84)))
(assert (= 18 (str.len var85)))
(assert (= 11 (str.len var86)))
(assert (= 70 (str.len var87)))
(assert (= 34 (str.len var88)))
(assert (= 60 (str.len var89)))
(assert (= 93 (str.len var90)))
(assert (= 24 (str.len var91)))
(assert (= 90 (str.len var92)))
(assert (= 61 (str.len var93)))
(assert (= 20 (str.len var94)))
(assert (= 5 (str.len var95)))
(assert (= 19 (str.len var96)))
(assert (= 41 (str.len var97)))
(assert (= 18 (str.len var98)))
(assert (= 90 (str.len var99)))
(assert (= 92 (str.len var100)))
(assert (= 36 (str.len var101)))
(assert (= 34 (str.len var102)))
(assert (= 87 (str.len var103)))
(assert (= 86 (str.len var104)))
(assert (= 30 (str.len var105)))
(assert (= 96 (str.len var106)))
(assert (= 69 (str.len var107)))
(assert (= 70 (str.len var108)))
(assert (= 5 (str.len var109)))
(assert (= 13 (str.len var110)))
(assert (= 46 (str.len var111)))
(assert (= 85 (str.len var112)))
(assert (= 61 (str.len var113)))
(assert (= 58 (str.len var114)))
(assert (= 49 (str.len var115)))
(assert (= 39 (str.len var116)))
(assert (= 20 (str.len var117)))
(assert (= 51 (str.len var118)))
(assert (= 32 (str.len var119)))
(assert (= 4 (str.len var120)))
(assert (= 42 (str.len var121)))
(assert (= 80 (str.len var122)))
(assert (= 16 (str.len var123)))
(assert (= 45 (str.len var124)))
(assert (= 96 (str.len var125)))
(assert (= 85 (str.len var126)))
(assert (= 32 (str.len var127)))
(assert (= 62 (str.len var128)))
(assert (= 22 (str.len var129)))
(assert (= 46 (str.len var130)))
(assert (= 58 (str.len var131)))
(assert (= 60 (str.len var132)))
(assert (= 57 (str.len var133)))
(assert (= 8 (str.len var134)))
(assert (= 26 (str.len var135)))
(assert (= 33 (str.len var136)))
(assert (= 23 (str.len var137)))
(assert (= 78 (str.len var138)))
(assert (= 76 (str.len var139)))
(assert (= 88 (str.len var140)))
(assert (= 81 (str.len var141)))
(assert (= 46 (str.len var142)))
(assert (= 6 (str.len var143)))
(assert (= 61 (str.len var144)))
(assert (= 95 (str.len var145)))
(assert (= 71 (str.len var146)))
(assert (= 2 (str.len var147)))
(assert (= 96 (str.len var148)))
(assert (= 52 (str.len var149)))
(assert (= 61 (str.len var150)))
(assert (= 69 (str.len var151)))
(assert (= 1 (str.len var152)))
(assert (= 10 (str.len var153)))
(assert (= 71 (str.len var154)))
(assert (= 91 (str.len var155)))
(assert (= 35 (str.len var156)))
(assert (= 45 (str.len var157)))
(assert (= 47 (str.len var158)))
(assert (= 19 (str.len var159)))
(assert (= 63 (str.len var160)))
(assert (= 79 (str.len var161)))
(assert (= 29 (str.len var162)))
(assert (= 70 (str.len var163)))
(assert (= 32 (str.len var164)))
(assert (= 54 (str.len var165)))
(assert (= 36 (str.len var166)))
(assert (= 4 (str.len var167)))
(assert (= 31 (str.len var168)))
(assert (= 7 (str.len var169)))
(assert (= 91 (str.len var170)))
(assert (= 92 (str.len var171)))
(assert (= 40 (str.len var172)))
(assert (= 48 (str.len var173)))
(assert (= 60 (str.len var174)))
(assert (= 81 (str.len var175)))
(assert (= 97 (str.len var176)))
(assert (= 18 (str.len var177)))
(assert (= 51 (str.len var178)))
(assert (= 97 (str.len var179)))
(assert (= 16 (str.len var180)))
(assert (= 59 (str.len var181)))
(assert (= 84 (str.len var182)))
(assert (= 35 (str.len var183)))
(assert (= 74 (str.len var184)))
(assert (= 0 (str.len var185)))
(assert (= 69 (str.len var186)))
(assert (= 71 (str.len var187)))
(assert (= 54 (str.len var188)))
(assert (= 12 (str.len var189)))
(assert (= 38 (str.len var190)))
(assert (= 94 (str.len var191)))
(assert (= 96 (str.len var192)))
(assert (= 48 (str.len var193)))
(assert (= 68 (str.len var194)))
(assert (= 18 (str.len var195)))
(assert (= 29 (str.len var196)))
(assert (= 36 (str.len var197)))
(assert (= 75 (str.len var198)))
(assert (= 59 (str.len var199)))
(assert (= 38 (str.len var200)))
(assert (= 36 (str.len var201)))
(assert (= 46 (str.len var202)))
(assert (= 73 (str.len var203)))
(assert (= 25 (str.len var204)))
(assert (= 54 (str.len var205)))
(assert (= 54 (str.len var206)))
(assert (= 53 (str.len var207)))
(assert (= 49 (str.len var208)))
(assert (= 22 (str.len var209)))
(assert (= 82 (str.len var210)))
(assert (= 21 (str.len var211)))
(assert (= 2 (str.len var212)))
(assert (= 97 (str.len var213)))
(assert (= 44 (str.len var214)))
(assert (= 57 (str.len var215)))
(assert (= 19 (str.len var216)))
(assert (= 59 (str.len var217)))
(assert (= 43 (str.len var218)))
(assert (= 5 (str.len var219)))
(assert (= 20 (str.len var220)))
(assert (= 60 (str.len var221)))
(assert (= 36 (str.len var222)))
(assert (= 66 (str.len var223)))
(assert (= 21 (str.len var224)))
(assert (= 86 (str.len var225)))
(assert (= 32 (str.len var226)))
(assert (= 59 (str.len var227)))
(assert (= 70 (str.len var228)))
(assert (= 1 (str.len var229)))
(assert (= 6 (str.len var230)))
(assert (= 81 (str.len var231)))
(assert (= 98 (str.len var232)))
(assert (= 1 (str.len var233)))
(assert (= 42 (str.len var234)))
(assert (= 17 (str.len var235)))
(assert (= 97 (str.len var236)))
(assert (= 11 (str.len var237)))
(assert (= 39 (str.len var238)))
(assert (= 48 (str.len var239)))
(assert (= 24 (str.len var240)))
(assert (= 0 (str.len var241)))
(assert (= 41 (str.len var242)))
(assert (= 10 (str.len var243)))
(assert (= 65 (str.len var244)))
(assert (= 45 (str.len var245)))
(assert (= 41 (str.len var246)))
(assert (= 8 (str.len var247)))
(assert (= 16 (str.len var248)))
(assert (= 50 (str.len var249)))
(assert (= 57 (str.len var250)))
(assert (= 39 (str.len var251)))
(assert (= 65 (str.len var252)))
(assert (= 54 (str.len var253)))
(assert (= 26 (str.len var254)))
(assert (= 17 (str.len var255)))
(assert (= 82 (str.len var256)))
(assert (= 83 (str.len var257)))
(assert (= 76 (str.len var258)))
(assert (= 18 (str.len var259)))
(assert (= 71 (str.len var260)))
(assert (= 23 (str.len var261)))
(assert (= 22 (str.len var262)))
(assert (= 13 (str.len var263)))
(assert (= 8 (str.len var264)))
(assert (= 1 (str.len var265)))
(assert (= 28 (str.len var266)))
(assert (= 70 (str.len var267)))
(assert (= 93 (str.len var268)))
(assert (= 37 (str.len var269)))
(assert (= 15 (str.len var270)))
(assert (= 28 (str.len var271)))
(assert (= 99 (str.len var272)))
(assert (= 65 (str.len var273)))
(assert (= 94 (str.len var274)))
(assert (= 85 (str.len var275)))
(assert (= 45 (str.len var276)))
(assert (= 17 (str.len var277)))
(assert (= 7 (str.len var278)))
(assert (= 98 (str.len var279)))
(assert (= 87 (str.len var280)))
(assert (= 5 (str.len var281)))
(assert (= 8 (str.len var282)))
(assert (= 50 (str.len var283)))
(assert (= 26 (str.len var284)))
(assert (= 16 (str.len var285)))
(assert (= 27 (str.len var286)))
(assert (= 66 (str.len var287)))
(assert (= 81 (str.len var288)))
(assert (= 34 (str.len var289)))
(assert (= 95 (str.len var290)))
(assert (= 26 (str.len var291)))
(assert (= 96 (str.len var292)))
(assert (= 98 (str.len var293)))
(assert (= 49 (str.len var294)))
(assert (= 65 (str.len var295)))
(assert (= 90 (str.len var296)))
(assert (= 71 (str.len var297)))
(assert (= 27 (str.len var298)))
(assert (= 19 (str.len var299)))
(assert (= 53 (str.len var300)))
(assert (= 93 (str.len var301)))
(assert (= 84 (str.len var302)))
(assert (= 37 (str.len var303)))
(assert (= 70 (str.len var304)))
(assert (= 83 (str.len var305)))
(assert (= 57 (str.len var306)))
(assert (= 5 (str.len var307)))
(assert (= 19 (str.len var308)))
(assert (= 74 (str.len var309)))
(assert (= 2 (str.len var310)))
(assert (= 34 (str.len var311)))
(assert (= 64 (str.len var312)))
(assert (= 88 (str.len var313)))
(assert (= 50 (str.len var314)))
(assert (= 63 (str.len var315)))
(assert (= 13 (str.len var316)))
(assert (= 19 (str.len var317)))
(assert (= 69 (str.len var318)))
(assert (= 29 (str.len var319)))
(assert (= 31 (str.len var320)))
(assert (= 30 (str.len var321)))
(assert (= 71 (str.len var322)))
(assert (= 48 (str.len var323)))
(assert (= 56 (str.len var324)))
(assert (= 17 (str.len var325)))
(assert (= 85 (str.len var326)))
(assert (= 69 (str.len var327)))
(assert (= 33 (str.len var328)))
(assert (= 55 (str.len var329)))
(assert (= 57 (str.len var330)))
(assert (= 45 (str.len var331)))
(assert (= 50 (str.len var332)))
(assert (= 67 (str.len var333)))
(assert (= 75 (str.len var334)))
(assert (= 23 (str.len var335)))
(assert (= 5 (str.len var336)))
(assert (= 48 (str.len var337)))
(assert (= 23 (str.len var338)))
(assert (= 69 (str.len var339)))
(assert (= 16 (str.len var340)))
(assert (= 35 (str.len var341)))
(assert (= 9 (str.len var342)))
(assert (= 93 (str.len var343)))
(assert (= 96 (str.len var344)))
(assert (= 83 (str.len var345)))
(assert (= 49 (str.len var346)))
(assert (= 77 (str.len var347)))
(assert (= 50 (str.len var348)))
(assert (= 70 (str.len var349)))
(assert (= 73 (str.len var350)))
(assert (= 34 (str.len var351)))
(assert (= 66 (str.len var352)))
(assert (= 51 (str.len var353)))
(assert (= 41 (str.len var354)))
(assert (= 66 (str.len var355)))
(assert (= 65 (str.len var356)))
(assert (= 88 (str.len var357)))
(assert (= 58 (str.len var358)))
(assert (= 80 (str.len var359)))
(assert (= 92 (str.len var360)))
(assert (= 80 (str.len var361)))
(assert (= 96 (str.len var362)))
(assert (= 64 (str.len var363)))
(assert (= 72 (str.len var364)))
(assert (= 33 (str.len var365)))
(assert (= 87 (str.len var366)))
(assert (= 46 (str.len var367)))
(assert (= 84 (str.len var368)))
(assert (= 90 (str.len var369)))
(assert (= 39 (str.len var370)))
(assert (= 20 (str.len var371)))
(assert (= 46 (str.len var372)))
(assert (= 3 (str.len var373)))
(assert (= 32 (str.len var374)))
(assert (= 2 (str.len var375)))
(assert (= 44 (str.len var376)))
(assert (= 26 (str.len var377)))
(assert (= 73 (str.len var378)))
(assert (= 57 (str.len var379)))
(assert (= 6 (str.len var380)))
(assert (= 5 (str.len var381)))
(assert (= 80 (str.len var382)))
(assert (= 2 (str.len var383)))
(assert (= 77 (str.len var384)))
(assert (= 87 (str.len var385)))
(assert (= 31 (str.len var386)))
(assert (= 1 (str.len var387)))
(assert (= 5 (str.len var388)))
(assert (= 92 (str.len var389)))
(assert (= 60 (str.len var390)))
(assert (= 64 (str.len var391)))
(assert (= 15 (str.len var392)))
(assert (= 14 (str.len var393)))
(assert (= 45 (str.len var394)))
(assert (= 69 (str.len var395)))
(assert (= 100 (str.len var396)))
(assert (= 14 (str.len var397)))
(assert (= 84 (str.len var398)))
(assert (= 60 (str.len var399)))
(assert (= 3 (str.len var400)))
(assert (= 19 (str.len var401)))
(assert (= 13 (str.len var402)))
(assert (= 7 (str.len var403)))
(assert (= 9 (str.len var404)))
(assert (= 13 (str.len var405)))
(assert (= 72 (str.len var406)))
(assert (= 1 (str.len var407)))
(assert (= 59 (str.len var408)))
(assert (= 91 (str.len var409)))
(assert (= 38 (str.len var410)))
(assert (= 3 (str.len var411)))
(assert (= 31 (str.len var412)))
(assert (= 81 (str.len var413)))
(assert (= 59 (str.len var414)))
(assert (= 54 (str.len var415)))
(assert (= 31 (str.len var416)))
(assert (= 40 (str.len var417)))
(assert (= 5 (str.len var418)))
(assert (= 67 (str.len var419)))
(assert (= 75 (str.len var420)))
(assert (= 5 (str.len var421)))
(assert (= 82 (str.len var422)))
(assert (= 58 (str.len var423)))
(assert (= 5 (str.len var424)))
(assert (= 75 (str.len var425)))
(assert (= 88 (str.len var426)))
(assert (= 98 (str.len var427)))
(assert (= 62 (str.len var428)))
(assert (= 13 (str.len var429)))
(assert (= 28 (str.len var430)))
(assert (= 27 (str.len var431)))
(assert (= 67 (str.len var432)))
(assert (= 80 (str.len var433)))
(assert (= 1 (str.len var434)))
(assert (= 37 (str.len var435)))
(assert (= 54 (str.len var436)))
(assert (= 71 (str.len var437)))
(assert (= 62 (str.len var438)))
(assert (= 74 (str.len var439)))
(assert (= 43 (str.len var440)))
(assert (= 8 (str.len var441)))
(assert (= 73 (str.len var442)))
(assert (= 3 (str.len var443)))
(assert (= 20 (str.len var444)))
(assert (= 10 (str.len var445)))
(assert (= 54 (str.len var446)))
(assert (= 71 (str.len var447)))
(assert (= 68 (str.len var448)))
(assert (= 87 (str.len var449)))
(assert (= 9 (str.len var450)))
(assert (= 35 (str.len var451)))
(assert (= 60 (str.len var452)))
(assert (= 83 (str.len var453)))
(assert (= 82 (str.len var454)))
(assert (= 84 (str.len var455)))
(assert (= 40 (str.len var456)))
(assert (= 18 (str.len var457)))
(assert (= 90 (str.len var458)))
(assert (= 52 (str.len var459)))
(assert (= 65 (str.len var460)))
(assert (= 29 (str.len var461)))
(assert (= 99 (str.len var462)))
(assert (= 77 (str.len var463)))
(assert (= 77 (str.len var464)))
(assert (= 66 (str.len var465)))
(assert (= 46 (str.len var466)))
(assert (= 83 (str.len var467)))
(assert (= 45 (str.len var468)))
(assert (= 55 (str.len var469)))
(assert (= 36 (str.len var470)))
(assert (= 81 (str.len var471)))
(assert (= 87 (str.len var472)))
(assert (= 53 (str.len var473)))
(assert (= 35 (str.len var474)))
(assert (= 12 (str.len var475)))
(assert (= 74 (str.len var476)))
(assert (= 45 (str.len var477)))
(assert (= 53 (str.len var478)))
(assert (= 51 (str.len var479)))
(assert (= 68 (str.len var480)))
(assert (= 29 (str.len var481)))
(assert (= 71 (str.len var482)))
(assert (= 42 (str.len var483)))
(assert (= 59 (str.len var484)))
(assert (= 52 (str.len var485)))
(assert (= 79 (str.len var486)))
(assert (= 45 (str.len var487)))
(assert (= 24 (str.len var488)))
(assert (= 67 (str.len var489)))
(assert (= 60 (str.len (str.++ var248 var73))))
(assert (= 163 (str.len (str.++ var447 var360))))
(assert (= 127 (str.len (str.++ var48 var359))))
(assert (= 110 (str.len (str.++ var213 var316))))
(assert (= 16 (str.len (str.++ var411 var263))))
(assert (= 60 (str.len (str.++ var172 var444))))
(assert (= 131 (str.len (str.++ var463 var446))))
(assert (= 99 (str.len (str.++ var269 var2))))
(assert (= 68 (str.len (str.++ var147 var1))))
(assert (= 158 (str.len (str.++ var57 var274))))
(assert (= 56 (str.len (str.++ var218 var429))))
(assert (= 57 (str.len (str.++ var149 var68))))
(assert (= 107 (str.len (str.++ var295 var121))))
(assert (= 115 (str.len (str.++ var242 var309))))
(assert (= 129 (str.len (str.++ var419 var428))))
(assert (= 14 (str.len (str.++ var50 var404))))
(assert (= 103 (str.len (str.++ var46 var268))))
(assert (= 143 (str.len (str.++ var389 var353))))
(assert (= 110 (str.len (str.++ var20 var370))))
(assert (= 58 (str.len (str.++ var117 var190))))
(assert (= 124 (str.len (str.++ var294 var334))))
(assert (= 76 (str.len (str.++ var207 var335))))
(assert (= 77 (str.len (str.++ var123 var72))))
(assert (= 172 (str.len (str.++ var313 var368))))
(assert (= 17 (str.len (str.++ var134 var342))))
(assert (= 187 (str.len (str.++ var103 var396))))
(assert (= 94 (str.len (str.++ var13 var285))))
(assert (= 116 (str.len (str.++ var398 var33))))
(assert (= 145 (str.len (str.++ var408 var104))))
(assert (= 144 (str.len (str.++ var84 var425))))
(assert (= 109 (str.len (str.++ var26 var312))))
(assert (= 77 (str.len (str.++ var378 var120))))
(assert (= 171 (str.len (str.++ var382 var170))))
(assert (= 121 (str.len (str.++ var34 var106))))
(assert (= 129 (str.len (str.++ var329 var184))))
(assert (= 90 (str.len (str.++ var317 var322))))
(assert (= 152 (str.len (str.++ var275 var432))))
(assert (= 138 (str.len (str.++ var11 var244))))
(assert (= 32 (str.len (str.++ var69 var94))))
(assert (= 192 (str.len (str.++ var148 var125))))
(assert (= 81 (str.len (str.++ var379 var240))))
(assert (= 71 (str.len (str.++ var333 var167))))
(assert (= 48 (str.len (str.++ var101 var189))))
(assert (= 82 (str.len (str.++ var440 var37))))
(assert (= 82 (str.len (str.++ var356 var277))))
(assert (= 68 (str.len (str.++ var397 var165))))
(assert (= 36 (str.len (str.++ var402 var261))))
(assert (= 76 (str.len (str.++ var358 var195))))
(assert (= 192 (str.len (str.++ var272 var53))))
(check-sat)